
Gurobi 7.0.2 (linux64, Matlab) logging started Sun Sep  2 08:55:02 2018


Gurobi 7.0.2 (linux64) logging started Sun Sep  2 08:55:02 2018

Optimize a model with 12515 rows, 10967 columns and 46614 nonzeros
Coefficient statistics:
  Matrix range     [1e+00, 1e+00]
  Objective range  [1e+00, 4e+00]
  Bounds range     [1e-03, 2e+00]
  RHS range        [1e+00, 3e+00]
Iteration    Objective       Primal Inf.    Dual Inf.      Time
       0    6.1420000e+03   0.000000e+00   0.000000e+00      0s

Solved in 0 iterations and 0.03 seconds
Optimal objective  6.142000000e+03
